NAME : a280.tsp
COMMENT : Optimal tour for a280.tsp
TYPE : TOUR
DIMENSION : 280
Total Length: 2816.929621232433
TOUR_SECTION
1
5
6
7
9
8
10
11
12
15
13
14
24
23
25
22
26
27
28
29
30
31
32
33
34
35
36
37
38
39
40
41
42
43
44
45
46
47
48
49
50
51
52
53
54
55
56
57
58
68
69
67
70
71
72
73
74
76
75
77
78
79
80
81
82
83
88
112
111
114
113
87
84
85
86
116
115
117
118
62
63
65
66
64
59
60
61
157
158
159
160
175
174
107
108
110
109
89
90
91
92
93
94
95
96
97
98
99
100
101
102
103
104
105
106
173
172
171
170
169
168
167
166
165
164
163
162
161
176
177
151
152
178
150
149
179
180
181
182
183
184
185
186
187
188
189
190
191
192
193
194
195
196
197
198
201
199
145
146
147
148
139
138
266
140
141
142
143
144
200
202
203
204
205
206
207
212
213
216
217
220
221
222
219
218
215
214
211
210
209
252
208
253
254
255
256
257
258
259
260
261
262
263
264
265
267
137
136
135
268
269
270
134
133
132
131
130
129
154
155
153
156
119
120
121
122
123
124
125
126
127
128
21
20
19
18
17
16
271
272
273
274
275
276
277
4
278
279
3
280
2
242
243
241
240
239
238
237
236
235
234
224
223
225
226
227
228
229
233
232
231
246
230
251
250
249
248
244
245
247
-1
EOF
